NAME          ClpDefau
ROWS
 N  OBJROW
 L  R_140_0
 L  R_140_1
 L  R_140_2
 L  R_140_3
 L  R_140_4
 L  R_140_5
 L  R_140_6
 L  R_140_7
 L  R_140_8
 L  R_140_9
 L  R_140_10
 L  R_140_11
 L  R_140_12
 L  R_140_13
 L  R_140_14
 L  R_140_15
COLUMNS
    x_0       OBJROW     -8.           R_140_2   3.          
    x_1       OBJROW     -12.          R_140_2   3.          
    x_1       R_140_4   6.             R_140_5   9.          
    x_1       R_140_9   8.          
    x_2       OBJROW     -11.          R_140_2   7.          
    x_3       OBJROW     -47.          R_140_5   10.         
    x_4       OBJROW     -22.          R_140_4   6.          
    x_4       R_140_7   2.             R_140_8   1.          
    x_4       R_140_12  9.             R_140_13  5.          
    x_5       OBJROW     -95.          R_140_3   6.          
    x_5       R_140_6   2.             R_140_8   1.          
    x_5       R_140_10  3.             R_140_13  10.         
    x_5       R_140_14  4.             R_140_15  1.          
    x_6       OBJROW     -86.          R_140_0   10.         
    x_6       R_140_8   5.          
    x_7       OBJROW     -40.          R_140_0   8.          
RHS
    RHS       R_140_0   8.             R_140_1   8.          
    RHS       R_140_2   8.             R_140_3   8.          
    RHS       R_140_4   9.             R_140_5   10.         
    RHS       R_140_6   8.             R_140_7   10.         
    RHS       R_140_8   10.            R_140_9   8.          
    RHS       R_140_10  8.             R_140_11  8.          
    RHS       R_140_12  10.            R_140_13  9.          
    RHS       R_140_14  8.             R_140_15  9.          
BOUNDS
 UI BOUND     x_0       100.        
 UI BOUND     x_1       100.        
 UI BOUND     x_2       100.        
 UI BOUND     x_3       100.        
 UI BOUND     x_4       100.        
 UI BOUND     x_5       100.        
 UI BOUND     x_6       100.        
 UI BOUND     x_7       100.        
ENDATA
